\ENCODING=ISO-8859-1
\Problem name: IloCplex

Minimize
 obj: y_1 + y_2 + y_3 + y_4 + y_5 + y_6 + y_7 + y_8 + y_9 + y_10 + y_11 + y_12
      + y_13 + y_14 + y_15 + y_16 + y_17 + y_18 + y_19 + y_20 + y_21
Subject To
 Cst_firstype_1:    1100 x_1_1 + 700 x_2_1 + 800 x_3_1 + 1400 x_4_1
                    + 2100 x_5_1 + 400 x_6_1 + 800 x_7_1 + 100 x_8_1
                    + 500 x_9_1 + 600 x_10_1 + 1200 x_11_1 + 1300 x_12_1
                    + 1300 x_13_1 + 300 x_14_1 + 900 x_15_1 + 2100 x_16_1
                    + 1000 x_17_1 + 900 x_18_1 + 2500 x_19_1 + 1800 x_20_1
                    + 700 x_21_1 - 6000 y_1 <= 0
 Cst_firstype_2:    1100 x_1_2 + 700 x_2_2 + 800 x_3_2 + 1400 x_4_2
                    + 2100 x_5_2 + 400 x_6_2 + 800 x_7_2 + 100 x_8_2
                    + 500 x_9_2 + 600 x_10_2 + 1200 x_11_2 + 1300 x_12_2
                    + 1300 x_13_2 + 300 x_14_2 + 900 x_15_2 + 2100 x_16_2
                    + 1000 x_17_2 + 900 x_18_2 + 2500 x_19_2 + 1800 x_20_2
                    + 700 x_21_2 - 6000 y_2 <= 0
 Cst_firstype_3:    1100 x_1_3 + 700 x_2_3 + 800 x_3_3 + 1400 x_4_3
                    + 2100 x_5_3 + 400 x_6_3 + 800 x_7_3 + 100 x_8_3
                    + 500 x_9_3 + 600 x_10_3 + 1200 x_11_3 + 1300 x_12_3
                    + 1300 x_13_3 + 300 x_14_3 + 900 x_15_3 + 2100 x_16_3
                    + 1000 x_17_3 + 900 x_18_3 + 2500 x_19_3 + 1800 x_20_3
                    + 700 x_21_3 - 6000 y_3 <= 0
 Cst_firstype_4:    1100 x_1_4 + 700 x_2_4 + 800 x_3_4 + 1400 x_4_4
                    + 2100 x_5_4 + 400 x_6_4 + 800 x_7_4 + 100 x_8_4
                    + 500 x_9_4 + 600 x_10_4 + 1200 x_11_4 + 1300 x_12_4
                    + 1300 x_13_4 + 300 x_14_4 + 900 x_15_4 + 2100 x_16_4
                    + 1000 x_17_4 + 900 x_18_4 + 2500 x_19_4 + 1800 x_20_4
                    + 700 x_21_4 - 6000 y_4 <= 0
 Cst_firstype_5:    1100 x_1_5 + 700 x_2_5 + 800 x_3_5 + 1400 x_4_5
                    + 2100 x_5_5 + 400 x_6_5 + 800 x_7_5 + 100 x_8_5
                    + 500 x_9_5 + 600 x_10_5 + 1200 x_11_5 + 1300 x_12_5
                    + 1300 x_13_5 + 300 x_14_5 + 900 x_15_5 + 2100 x_16_5
                    + 1000 x_17_5 + 900 x_18_5 + 2500 x_19_5 + 1800 x_20_5
                    + 700 x_21_5 - 6000 y_5 <= 0
 Cst_firstype_6:    1100 x_1_6 + 700 x_2_6 + 800 x_3_6 + 1400 x_4_6
                    + 2100 x_5_6 + 400 x_6_6 + 800 x_7_6 + 100 x_8_6
                    + 500 x_9_6 + 600 x_10_6 + 1200 x_11_6 + 1300 x_12_6
                    + 1300 x_13_6 + 300 x_14_6 + 900 x_15_6 + 2100 x_16_6
                    + 1000 x_17_6 + 900 x_18_6 + 2500 x_19_6 + 1800 x_20_6
                    + 700 x_21_6 - 6000 y_6 <= 0
 Cst_firstype_7:    1100 x_1_7 + 700 x_2_7 + 800 x_3_7 + 1400 x_4_7
                    + 2100 x_5_7 + 400 x_6_7 + 800 x_7_7 + 100 x_8_7
                    + 500 x_9_7 + 600 x_10_7 + 1200 x_11_7 + 1300 x_12_7
                    + 1300 x_13_7 + 300 x_14_7 + 900 x_15_7 + 2100 x_16_7
                    + 1000 x_17_7 + 900 x_18_7 + 2500 x_19_7 + 1800 x_20_7
                    + 700 x_21_7 - 6000 y_7 <= 0
 Cst_firstype_8:    1100 x_1_8 + 700 x_2_8 + 800 x_3_8 + 1400 x_4_8
                    + 2100 x_5_8 + 400 x_6_8 + 800 x_7_8 + 100 x_8_8
                    + 500 x_9_8 + 600 x_10_8 + 1200 x_11_8 + 1300 x_12_8
                    + 1300 x_13_8 + 300 x_14_8 + 900 x_15_8 + 2100 x_16_8
                    + 1000 x_17_8 + 900 x_18_8 + 2500 x_19_8 + 1800 x_20_8
                    + 700 x_21_8 - 6000 y_8 <= 0
 Cst_firstype_9:    1100 x_1_9 + 700 x_2_9 + 800 x_3_9 + 1400 x_4_9
                    + 2100 x_5_9 + 400 x_6_9 + 800 x_7_9 + 100 x_8_9
                    + 500 x_9_9 + 600 x_10_9 + 1200 x_11_9 + 1300 x_12_9
                    + 1300 x_13_9 + 300 x_14_9 + 900 x_15_9 + 2100 x_16_9
                    + 1000 x_17_9 + 900 x_18_9 + 2500 x_19_9 + 1800 x_20_9
                    + 700 x_21_9 - 6000 y_9 <= 0
 Cst_firstype_10:   1100 x_1_10 + 700 x_2_10 + 800 x_3_10 + 1400 x_4_10
                    + 2100 x_5_10 + 400 x_6_10 + 800 x_7_10 + 100 x_8_10
                    + 500 x_9_10 + 600 x_10_10 + 1200 x_11_10 + 1300 x_12_10
                    + 1300 x_13_10 + 300 x_14_10 + 900 x_15_10 + 2100 x_16_10
                    + 1000 x_17_10 + 900 x_18_10 + 2500 x_19_10 + 1800 x_20_10
                    + 700 x_21_10 - 6000 y_10 <= 0
 Cst_firstype_11:   1100 x_1_11 + 700 x_2_11 + 800 x_3_11 + 1400 x_4_11
                    + 2100 x_5_11 + 400 x_6_11 + 800 x_7_11 + 100 x_8_11
                    + 500 x_9_11 + 600 x_10_11 + 1200 x_11_11 + 1300 x_12_11
                    + 1300 x_13_11 + 300 x_14_11 + 900 x_15_11 + 2100 x_16_11
                    + 1000 x_17_11 + 900 x_18_11 + 2500 x_19_11 + 1800 x_20_11
                    + 700 x_21_11 - 6000 y_11 <= 0
 Cst_firstype_12:   1100 x_1_12 + 700 x_2_12 + 800 x_3_12 + 1400 x_4_12
                    + 2100 x_5_12 + 400 x_6_12 + 800 x_7_12 + 100 x_8_12
                    + 500 x_9_12 + 600 x_10_12 + 1200 x_11_12 + 1300 x_12_12
                    + 1300 x_13_12 + 300 x_14_12 + 900 x_15_12 + 2100 x_16_12
                    + 1000 x_17_12 + 900 x_18_12 + 2500 x_19_12 + 1800 x_20_12
                    + 700 x_21_12 - 6000 y_12 <= 0
 Cst_firstype_13:   1100 x_1_13 + 700 x_2_13 + 800 x_3_13 + 1400 x_4_13
                    + 2100 x_5_13 + 400 x_6_13 + 800 x_7_13 + 100 x_8_13
                    + 500 x_9_13 + 600 x_10_13 + 1200 x_11_13 + 1300 x_12_13
                    + 1300 x_13_13 + 300 x_14_13 + 900 x_15_13 + 2100 x_16_13
                    + 1000 x_17_13 + 900 x_18_13 + 2500 x_19_13 + 1800 x_20_13
                    + 700 x_21_13 - 6000 y_13 <= 0
 Cst_firstype_14:   1100 x_1_14 + 700 x_2_14 + 800 x_3_14 + 1400 x_4_14
                    + 2100 x_5_14 + 400 x_6_14 + 800 x_7_14 + 100 x_8_14
                    + 500 x_9_14 + 600 x_10_14 + 1200 x_11_14 + 1300 x_12_14
                    + 1300 x_13_14 + 300 x_14_14 + 900 x_15_14 + 2100 x_16_14
                    + 1000 x_17_14 + 900 x_18_14 + 2500 x_19_14 + 1800 x_20_14
                    + 700 x_21_14 - 6000 y_14 <= 0
 Cst_firstype_15:   1100 x_1_15 + 700 x_2_15 + 800 x_3_15 + 1400 x_4_15
                    + 2100 x_5_15 + 400 x_6_15 + 800 x_7_15 + 100 x_8_15
                    + 500 x_9_15 + 600 x_10_15 + 1200 x_11_15 + 1300 x_12_15
                    + 1300 x_13_15 + 300 x_14_15 + 900 x_15_15 + 2100 x_16_15
                    + 1000 x_17_15 + 900 x_18_15 + 2500 x_19_15 + 1800 x_20_15
                    + 700 x_21_15 - 6000 y_15 <= 0
 Cst_firstype_16:   1100 x_1_16 + 700 x_2_16 + 800 x_3_16 + 1400 x_4_16
                    + 2100 x_5_16 + 400 x_6_16 + 800 x_7_16 + 100 x_8_16
                    + 500 x_9_16 + 600 x_10_16 + 1200 x_11_16 + 1300 x_12_16
                    + 1300 x_13_16 + 300 x_14_16 + 900 x_15_16 + 2100 x_16_16
                    + 1000 x_17_16 + 900 x_18_16 + 2500 x_19_16 + 1800 x_20_16
                    + 700 x_21_16 - 6000 y_16 <= 0
 Cst_firstype_17:   1100 x_1_17 + 700 x_2_17 + 800 x_3_17 + 1400 x_4_17
                    + 2100 x_5_17 + 400 x_6_17 + 800 x_7_17 + 100 x_8_17
                    + 500 x_9_17 + 600 x_10_17 + 1200 x_11_17 + 1300 x_12_17
                    + 1300 x_13_17 + 300 x_14_17 + 900 x_15_17 + 2100 x_16_17
                    + 1000 x_17_17 + 900 x_18_17 + 2500 x_19_17 + 1800 x_20_17
                    + 700 x_21_17 - 6000 y_17 <= 0
 Cst_firstype_18:   1100 x_1_18 + 700 x_2_18 + 800 x_3_18 + 1400 x_4_18
                    + 2100 x_5_18 + 400 x_6_18 + 800 x_7_18 + 100 x_8_18
                    + 500 x_9_18 + 600 x_10_18 + 1200 x_11_18 + 1300 x_12_18
                    + 1300 x_13_18 + 300 x_14_18 + 900 x_15_18 + 2100 x_16_18
                    + 1000 x_17_18 + 900 x_18_18 + 2500 x_19_18 + 1800 x_20_18
                    + 700 x_21_18 - 6000 y_18 <= 0
 Cst_firstype_19:   1100 x_1_19 + 700 x_2_19 + 800 x_3_19 + 1400 x_4_19
                    + 2100 x_5_19 + 400 x_6_19 + 800 x_7_19 + 100 x_8_19
                    + 500 x_9_19 + 600 x_10_19 + 1200 x_11_19 + 1300 x_12_19
                    + 1300 x_13_19 + 300 x_14_19 + 900 x_15_19 + 2100 x_16_19
                    + 1000 x_17_19 + 900 x_18_19 + 2500 x_19_19 + 1800 x_20_19
                    + 700 x_21_19 - 6000 y_19 <= 0
 Cst_firstype_20:   1100 x_1_20 + 700 x_2_20 + 800 x_3_20 + 1400 x_4_20
                    + 2100 x_5_20 + 400 x_6_20 + 800 x_7_20 + 100 x_8_20
                    + 500 x_9_20 + 600 x_10_20 + 1200 x_11_20 + 1300 x_12_20
                    + 1300 x_13_20 + 300 x_14_20 + 900 x_15_20 + 2100 x_16_20
                    + 1000 x_17_20 + 900 x_18_20 + 2500 x_19_20 + 1800 x_20_20
                    + 700 x_21_20 - 6000 y_20 <= 0
 Cst_firstype_21:   1100 x_1_21 + 700 x_2_21 + 800 x_3_21 + 1400 x_4_21
                    + 2100 x_5_21 + 400 x_6_21 + 800 x_7_21 + 100 x_8_21
                    + 500 x_9_21 + 600 x_10_21 + 1200 x_11_21 + 1300 x_12_21
                    + 1300 x_13_21 + 300 x_14_21 + 900 x_15_21 + 2100 x_16_21
                    + 1000 x_17_21 + 900 x_18_21 + 2500 x_19_21 + 1800 x_20_21
                    + 700 x_21_21 - 6000 y_21 <= 0
 Cst_secondtype_1:  x_1_1 + x_1_2 + x_1_3 + x_1_4 + x_1_5 + x_1_6 + x_1_7
                    + x_1_8 + x_1_9 + x_1_10 + x_1_11 + x_1_12 + x_1_13
                    + x_1_14 + x_1_15 + x_1_16 + x_1_17 + x_1_18 + x_1_19
                    + x_1_20 + x_1_21  = 1
 Cst_secondtype_2:  x_2_1 + x_2_2 + x_2_3 + x_2_4 + x_2_5 + x_2_6 + x_2_7
                    + x_2_8 + x_2_9 + x_2_10 + x_2_11 + x_2_12 + x_2_13
                    + x_2_14 + x_2_15 + x_2_16 + x_2_17 + x_2_18 + x_2_19
                    + x_2_20 + x_2_21  = 1
 Cst_secondtype_3:  x_3_1 + x_3_2 + x_3_3 + x_3_4 + x_3_5 + x_3_6 + x_3_7
                    + x_3_8 + x_3_9 + x_3_10 + x_3_11 + x_3_12 + x_3_13
                    + x_3_14 + x_3_15 + x_3_16 + x_3_17 + x_3_18 + x_3_19
                    + x_3_20 + x_3_21  = 1
 Cst_secondtype_4:  x_4_1 + x_4_2 + x_4_3 + x_4_4 + x_4_5 + x_4_6 + x_4_7
                    + x_4_8 + x_4_9 + x_4_10 + x_4_11 + x_4_12 + x_4_13
                    + x_4_14 + x_4_15 + x_4_16 + x_4_17 + x_4_18 + x_4_19
                    + x_4_20 + x_4_21  = 1
 Cst_secondtype_5:  x_5_1 + x_5_2 + x_5_3 + x_5_4 + x_5_5 + x_5_6 + x_5_7
                    + x_5_8 + x_5_9 + x_5_10 + x_5_11 + x_5_12 + x_5_13
                    + x_5_14 + x_5_15 + x_5_16 + x_5_17 + x_5_18 + x_5_19
                    + x_5_20 + x_5_21  = 1
 Cst_secondtype_6:  x_6_1 + x_6_2 + x_6_3 + x_6_4 + x_6_5 + x_6_6 + x_6_7
                    + x_6_8 + x_6_9 + x_6_10 + x_6_11 + x_6_12 + x_6_13
                    + x_6_14 + x_6_15 + x_6_16 + x_6_17 + x_6_18 + x_6_19
                    + x_6_20 + x_6_21  = 1
 Cst_secondtype_7:  x_7_1 + x_7_2 + x_7_3 + x_7_4 + x_7_5 + x_7_6 + x_7_7
                    + x_7_8 + x_7_9 + x_7_10 + x_7_11 + x_7_12 + x_7_13
                    + x_7_14 + x_7_15 + x_7_16 + x_7_17 + x_7_18 + x_7_19
                    + x_7_20 + x_7_21  = 1
 Cst_secondtype_8:  x_8_1 + x_8_2 + x_8_3 + x_8_4 + x_8_5 + x_8_6 + x_8_7
                    + x_8_8 + x_8_9 + x_8_10 + x_8_11 + x_8_12 + x_8_13
                    + x_8_14 + x_8_15 + x_8_16 + x_8_17 + x_8_18 + x_8_19
                    + x_8_20 + x_8_21  = 1
 Cst_secondtype_9:  x_9_1 + x_9_2 + x_9_3 + x_9_4 + x_9_5 + x_9_6 + x_9_7
                    + x_9_8 + x_9_9 + x_9_10 + x_9_11 + x_9_12 + x_9_13
                    + x_9_14 + x_9_15 + x_9_16 + x_9_17 + x_9_18 + x_9_19
                    + x_9_20 + x_9_21  = 1
 Cst_secondtype_10: x_10_1 + x_10_2 + x_10_3 + x_10_4 + x_10_5 + x_10_6
                    + x_10_7 + x_10_8 + x_10_9 + x_10_10 + x_10_11 + x_10_12
                    + x_10_13 + x_10_14 + x_10_15 + x_10_16 + x_10_17 + x_10_18
                    + x_10_19 + x_10_20 + x_10_21  = 1
 Cst_secondtype_11: x_11_1 + x_11_2 + x_11_3 + x_11_4 + x_11_5 + x_11_6
                    + x_11_7 + x_11_8 + x_11_9 + x_11_10 + x_11_11 + x_11_12
                    + x_11_13 + x_11_14 + x_11_15 + x_11_16 + x_11_17 + x_11_18
                    + x_11_19 + x_11_20 + x_11_21  = 1
 Cst_secondtype_12: x_12_1 + x_12_2 + x_12_3 + x_12_4 + x_12_5 + x_12_6
                    + x_12_7 + x_12_8 + x_12_9 + x_12_10 + x_12_11 + x_12_12
                    + x_12_13 + x_12_14 + x_12_15 + x_12_16 + x_12_17 + x_12_18
                    + x_12_19 + x_12_20 + x_12_21  = 1
 Cst_secondtype_13: x_13_1 + x_13_2 + x_13_3 + x_13_4 + x_13_5 + x_13_6
                    + x_13_7 + x_13_8 + x_13_9 + x_13_10 + x_13_11 + x_13_12
                    + x_13_13 + x_13_14 + x_13_15 + x_13_16 + x_13_17 + x_13_18
                    + x_13_19 + x_13_20 + x_13_21  = 1
 Cst_secondtype_14: x_14_1 + x_14_2 + x_14_3 + x_14_4 + x_14_5 + x_14_6
                    + x_14_7 + x_14_8 + x_14_9 + x_14_10 + x_14_11 + x_14_12
                    + x_14_13 + x_14_14 + x_14_15 + x_14_16 + x_14_17 + x_14_18
                    + x_14_19 + x_14_20 + x_14_21  = 1
 Cst_secondtype_15: x_15_1 + x_15_2 + x_15_3 + x_15_4 + x_15_5 + x_15_6
                    + x_15_7 + x_15_8 + x_15_9 + x_15_10 + x_15_11 + x_15_12
                    + x_15_13 + x_15_14 + x_15_15 + x_15_16 + x_15_17 + x_15_18
                    + x_15_19 + x_15_20 + x_15_21  = 1
 Cst_secondtype_16: x_16_1 + x_16_2 + x_16_3 + x_16_4 + x_16_5 + x_16_6
                    + x_16_7 + x_16_8 + x_16_9 + x_16_10 + x_16_11 + x_16_12
                    + x_16_13 + x_16_14 + x_16_15 + x_16_16 + x_16_17 + x_16_18
                    + x_16_19 + x_16_20 + x_16_21  = 1
 Cst_secondtype_17: x_17_1 + x_17_2 + x_17_3 + x_17_4 + x_17_5 + x_17_6
                    + x_17_7 + x_17_8 + x_17_9 + x_17_10 + x_17_11 + x_17_12
                    + x_17_13 + x_17_14 + x_17_15 + x_17_16 + x_17_17 + x_17_18
                    + x_17_19 + x_17_20 + x_17_21  = 1
 Cst_secondtype_18: x_18_1 + x_18_2 + x_18_3 + x_18_4 + x_18_5 + x_18_6
                    + x_18_7 + x_18_8 + x_18_9 + x_18_10 + x_18_11 + x_18_12
                    + x_18_13 + x_18_14 + x_18_15 + x_18_16 + x_18_17 + x_18_18
                    + x_18_19 + x_18_20 + x_18_21  = 1
 Cst_secondtype_19: x_19_1 + x_19_2 + x_19_3 + x_19_4 + x_19_5 + x_19_6
                    + x_19_7 + x_19_8 + x_19_9 + x_19_10 + x_19_11 + x_19_12
                    + x_19_13 + x_19_14 + x_19_15 + x_19_16 + x_19_17 + x_19_18
                    + x_19_19 + x_19_20 + x_19_21  = 1
 Cst_secondtype_20: x_20_1 + x_20_2 + x_20_3 + x_20_4 + x_20_5 + x_20_6
                    + x_20_7 + x_20_8 + x_20_9 + x_20_10 + x_20_11 + x_20_12
                    + x_20_13 + x_20_14 + x_20_15 + x_20_16 + x_20_17 + x_20_18
                    + x_20_19 + x_20_20 + x_20_21  = 1
 Cst_secondtype_21: x_21_1 + x_21_2 + x_21_3 + x_21_4 + x_21_5 + x_21_6
                    + x_21_7 + x_21_8 + x_21_9 + x_21_10 + x_21_11 + x_21_12
                    + x_21_13 + x_21_14 + x_21_15 + x_21_16 + x_21_17 + x_21_18
                    + x_21_19 + x_21_20 + x_21_21  = 1
Bounds
 0 <= x_1_1 <= 1
 0 <= x_2_1 <= 1
 0 <= x_3_1 <= 1
 0 <= x_4_1 <= 1
 0 <= x_5_1 <= 1
 0 <= x_6_1 <= 1
 0 <= x_7_1 <= 1
 0 <= x_8_1 <= 1
 0 <= x_9_1 <= 1
 0 <= x_10_1 <= 1
 0 <= x_11_1 <= 1
 0 <= x_12_1 <= 1
 0 <= x_13_1 <= 1
 0 <= x_14_1 <= 1
 0 <= x_15_1 <= 1
 0 <= x_16_1 <= 1
 0 <= x_17_1 <= 1
 0 <= x_18_1 <= 1
 0 <= x_19_1 <= 1
 0 <= x_20_1 <= 1
 0 <= x_21_1 <= 1
 0 <= y_1 <= 1
 0 <= x_1_2 <= 1
 0 <= x_2_2 <= 1
 0 <= x_3_2 <= 1
 0 <= x_4_2 <= 1
 0 <= x_5_2 <= 1
 0 <= x_6_2 <= 1
 0 <= x_7_2 <= 1
 0 <= x_8_2 <= 1
 0 <= x_9_2 <= 1
 0 <= x_10_2 <= 1
 0 <= x_11_2 <= 1
 0 <= x_12_2 <= 1
 0 <= x_13_2 <= 1
 0 <= x_14_2 <= 1
 0 <= x_15_2 <= 1
 0 <= x_16_2 <= 1
 0 <= x_17_2 <= 1
 0 <= x_18_2 <= 1
 0 <= x_19_2 <= 1
 0 <= x_20_2 <= 1
 0 <= x_21_2 <= 1
 0 <= y_2 <= 1
 0 <= x_1_3 <= 1
 0 <= x_2_3 <= 1
 0 <= x_3_3 <= 1
 0 <= x_4_3 <= 1
 0 <= x_5_3 <= 1
 0 <= x_6_3 <= 1
 0 <= x_7_3 <= 1
 0 <= x_8_3 <= 1
 0 <= x_9_3 <= 1
 0 <= x_10_3 <= 1
 0 <= x_11_3 <= 1
 0 <= x_12_3 <= 1
 0 <= x_13_3 <= 1
 0 <= x_14_3 <= 1
 0 <= x_15_3 <= 1
 0 <= x_16_3 <= 1
 0 <= x_17_3 <= 1
 0 <= x_18_3 <= 1
 0 <= x_19_3 <= 1
 0 <= x_20_3 <= 1
 0 <= x_21_3 <= 1
 0 <= y_3 <= 1
 0 <= x_1_4 <= 1
 0 <= x_2_4 <= 1
 0 <= x_3_4 <= 1
 0 <= x_4_4 <= 1
 0 <= x_5_4 <= 1
 0 <= x_6_4 <= 1
 0 <= x_7_4 <= 1
 0 <= x_8_4 <= 1
 0 <= x_9_4 <= 1
 0 <= x_10_4 <= 1
 0 <= x_11_4 <= 1
 0 <= x_12_4 <= 1
 0 <= x_13_4 <= 1
 0 <= x_14_4 <= 1
 0 <= x_15_4 <= 1
 0 <= x_16_4 <= 1
 0 <= x_17_4 <= 1
 0 <= x_18_4 <= 1
 0 <= x_19_4 <= 1
 0 <= x_20_4 <= 1
 0 <= x_21_4 <= 1
 0 <= y_4 <= 1
 0 <= x_1_5 <= 1
 0 <= x_2_5 <= 1
 0 <= x_3_5 <= 1
 0 <= x_4_5 <= 1
 0 <= x_5_5 <= 1
 0 <= x_6_5 <= 1
 0 <= x_7_5 <= 1
 0 <= x_8_5 <= 1
 0 <= x_9_5 <= 1
 0 <= x_10_5 <= 1
 0 <= x_11_5 <= 1
 0 <= x_12_5 <= 1
 0 <= x_13_5 <= 1
 0 <= x_14_5 <= 1
 0 <= x_15_5 <= 1
 0 <= x_16_5 <= 1
 0 <= x_17_5 <= 1
 0 <= x_18_5 <= 1
 0 <= x_19_5 <= 1
 0 <= x_20_5 <= 1
 0 <= x_21_5 <= 1
 0 <= y_5 <= 1
 0 <= x_1_6 <= 1
 0 <= x_2_6 <= 1
 0 <= x_3_6 <= 1
 0 <= x_4_6 <= 1
 0 <= x_5_6 <= 1
 0 <= x_6_6 <= 1
 0 <= x_7_6 <= 1
 0 <= x_8_6 <= 1
 0 <= x_9_6 <= 1
 0 <= x_10_6 <= 1
 0 <= x_11_6 <= 1
 0 <= x_12_6 <= 1
 0 <= x_13_6 <= 1
 0 <= x_14_6 <= 1
 0 <= x_15_6 <= 1
 0 <= x_16_6 <= 1
 0 <= x_17_6 <= 1
 0 <= x_18_6 <= 1
 0 <= x_19_6 <= 1
 0 <= x_20_6 <= 1
 0 <= x_21_6 <= 1
 0 <= y_6 <= 1
 0 <= x_1_7 <= 1
 0 <= x_2_7 <= 1
 0 <= x_3_7 <= 1
 0 <= x_4_7 <= 1
 0 <= x_5_7 <= 1
 0 <= x_6_7 <= 1
 0 <= x_7_7 <= 1
 0 <= x_8_7 <= 1
 0 <= x_9_7 <= 1
 0 <= x_10_7 <= 1
 0 <= x_11_7 <= 1
 0 <= x_12_7 <= 1
 0 <= x_13_7 <= 1
 0 <= x_14_7 <= 1
 0 <= x_15_7 <= 1
 0 <= x_16_7 <= 1
 0 <= x_17_7 <= 1
 0 <= x_18_7 <= 1
 0 <= x_19_7 <= 1
 0 <= x_20_7 <= 1
 0 <= x_21_7 <= 1
 0 <= y_7 <= 1
 0 <= x_1_8 <= 1
 0 <= x_2_8 <= 1
 0 <= x_3_8 <= 1
 0 <= x_4_8 <= 1
 0 <= x_5_8 <= 1
 0 <= x_6_8 <= 1
 0 <= x_7_8 <= 1
 0 <= x_8_8 <= 1
 0 <= x_9_8 <= 1
 0 <= x_10_8 <= 1
 0 <= x_11_8 <= 1
 0 <= x_12_8 <= 1
 0 <= x_13_8 <= 1
 0 <= x_14_8 <= 1
 0 <= x_15_8 <= 1
 0 <= x_16_8 <= 1
 0 <= x_17_8 <= 1
 0 <= x_18_8 <= 1
 0 <= x_19_8 <= 1
 0 <= x_20_8 <= 1
 0 <= x_21_8 <= 1
 0 <= y_8 <= 1
 0 <= x_1_9 <= 1
 0 <= x_2_9 <= 1
 0 <= x_3_9 <= 1
 0 <= x_4_9 <= 1
 0 <= x_5_9 <= 1
 0 <= x_6_9 <= 1
 0 <= x_7_9 <= 1
 0 <= x_8_9 <= 1
 0 <= x_9_9 <= 1
 0 <= x_10_9 <= 1
 0 <= x_11_9 <= 1
 0 <= x_12_9 <= 1
 0 <= x_13_9 <= 1
 0 <= x_14_9 <= 1
 0 <= x_15_9 <= 1
 0 <= x_16_9 <= 1
 0 <= x_17_9 <= 1
 0 <= x_18_9 <= 1
 0 <= x_19_9 <= 1
 0 <= x_20_9 <= 1
 0 <= x_21_9 <= 1
 0 <= y_9 <= 1
 0 <= x_1_10 <= 1
 0 <= x_2_10 <= 1
 0 <= x_3_10 <= 1
 0 <= x_4_10 <= 1
 0 <= x_5_10 <= 1
 0 <= x_6_10 <= 1
 0 <= x_7_10 <= 1
 0 <= x_8_10 <= 1
 0 <= x_9_10 <= 1
 0 <= x_10_10 <= 1
 0 <= x_11_10 <= 1
 0 <= x_12_10 <= 1
 0 <= x_13_10 <= 1
 0 <= x_14_10 <= 1
 0 <= x_15_10 <= 1
 0 <= x_16_10 <= 1
 0 <= x_17_10 <= 1
 0 <= x_18_10 <= 1
 0 <= x_19_10 <= 1
 0 <= x_20_10 <= 1
 0 <= x_21_10 <= 1
 0 <= y_10 <= 1
 0 <= x_1_11 <= 1
 0 <= x_2_11 <= 1
 0 <= x_3_11 <= 1
 0 <= x_4_11 <= 1
 0 <= x_5_11 <= 1
 0 <= x_6_11 <= 1
 0 <= x_7_11 <= 1
 0 <= x_8_11 <= 1
 0 <= x_9_11 <= 1
 0 <= x_10_11 <= 1
 0 <= x_11_11 <= 1
 0 <= x_12_11 <= 1
 0 <= x_13_11 <= 1
 0 <= x_14_11 <= 1
 0 <= x_15_11 <= 1
 0 <= x_16_11 <= 1
 0 <= x_17_11 <= 1
 0 <= x_18_11 <= 1
 0 <= x_19_11 <= 1
 0 <= x_20_11 <= 1
 0 <= x_21_11 <= 1
 0 <= y_11 <= 1
 0 <= x_1_12 <= 1
 0 <= x_2_12 <= 1
 0 <= x_3_12 <= 1
 0 <= x_4_12 <= 1
 0 <= x_5_12 <= 1
 0 <= x_6_12 <= 1
 0 <= x_7_12 <= 1
 0 <= x_8_12 <= 1
 0 <= x_9_12 <= 1
 0 <= x_10_12 <= 1
 0 <= x_11_12 <= 1
 0 <= x_12_12 <= 1
 0 <= x_13_12 <= 1
 0 <= x_14_12 <= 1
 0 <= x_15_12 <= 1
 0 <= x_16_12 <= 1
 0 <= x_17_12 <= 1
 0 <= x_18_12 <= 1
 0 <= x_19_12 <= 1
 0 <= x_20_12 <= 1
 0 <= x_21_12 <= 1
 0 <= y_12 <= 1
 0 <= x_1_13 <= 1
 0 <= x_2_13 <= 1
 0 <= x_3_13 <= 1
 0 <= x_4_13 <= 1
 0 <= x_5_13 <= 1
 0 <= x_6_13 <= 1
 0 <= x_7_13 <= 1
 0 <= x_8_13 <= 1
 0 <= x_9_13 <= 1
 0 <= x_10_13 <= 1
 0 <= x_11_13 <= 1
 0 <= x_12_13 <= 1
 0 <= x_13_13 <= 1
 0 <= x_14_13 <= 1
 0 <= x_15_13 <= 1
 0 <= x_16_13 <= 1
 0 <= x_17_13 <= 1
 0 <= x_18_13 <= 1
 0 <= x_19_13 <= 1
 0 <= x_20_13 <= 1
 0 <= x_21_13 <= 1
 0 <= y_13 <= 1
 0 <= x_1_14 <= 1
 0 <= x_2_14 <= 1
 0 <= x_3_14 <= 1
 0 <= x_4_14 <= 1
 0 <= x_5_14 <= 1
 0 <= x_6_14 <= 1
 0 <= x_7_14 <= 1
 0 <= x_8_14 <= 1
 0 <= x_9_14 <= 1
 0 <= x_10_14 <= 1
 0 <= x_11_14 <= 1
 0 <= x_12_14 <= 1
 0 <= x_13_14 <= 1
 0 <= x_14_14 <= 1
 0 <= x_15_14 <= 1
 0 <= x_16_14 <= 1
 0 <= x_17_14 <= 1
 0 <= x_18_14 <= 1
 0 <= x_19_14 <= 1
 0 <= x_20_14 <= 1
 0 <= x_21_14 <= 1
 0 <= y_14 <= 1
 0 <= x_1_15 <= 1
 0 <= x_2_15 <= 1
 0 <= x_3_15 <= 1
 0 <= x_4_15 <= 1
 0 <= x_5_15 <= 1
 0 <= x_6_15 <= 1
 0 <= x_7_15 <= 1
 0 <= x_8_15 <= 1
 0 <= x_9_15 <= 1
 0 <= x_10_15 <= 1
 0 <= x_11_15 <= 1
 0 <= x_12_15 <= 1
 0 <= x_13_15 <= 1
 0 <= x_14_15 <= 1
 0 <= x_15_15 <= 1
 0 <= x_16_15 <= 1
 0 <= x_17_15 <= 1
 0 <= x_18_15 <= 1
 0 <= x_19_15 <= 1
 0 <= x_20_15 <= 1
 0 <= x_21_15 <= 1
 0 <= y_15 <= 1
 0 <= x_1_16 <= 1
 0 <= x_2_16 <= 1
 0 <= x_3_16 <= 1
 0 <= x_4_16 <= 1
 0 <= x_5_16 <= 1
 0 <= x_6_16 <= 1
 0 <= x_7_16 <= 1
 0 <= x_8_16 <= 1
 0 <= x_9_16 <= 1
 0 <= x_10_16 <= 1
 0 <= x_11_16 <= 1
 0 <= x_12_16 <= 1
 0 <= x_13_16 <= 1
 0 <= x_14_16 <= 1
 0 <= x_15_16 <= 1
 0 <= x_16_16 <= 1
 0 <= x_17_16 <= 1
 0 <= x_18_16 <= 1
 0 <= x_19_16 <= 1
 0 <= x_20_16 <= 1
 0 <= x_21_16 <= 1
 0 <= y_16 <= 1
 0 <= x_1_17 <= 1
 0 <= x_2_17 <= 1
 0 <= x_3_17 <= 1
 0 <= x_4_17 <= 1
 0 <= x_5_17 <= 1
 0 <= x_6_17 <= 1
 0 <= x_7_17 <= 1
 0 <= x_8_17 <= 1
 0 <= x_9_17 <= 1
 0 <= x_10_17 <= 1
 0 <= x_11_17 <= 1
 0 <= x_12_17 <= 1
 0 <= x_13_17 <= 1
 0 <= x_14_17 <= 1
 0 <= x_15_17 <= 1
 0 <= x_16_17 <= 1
 0 <= x_17_17 <= 1
 0 <= x_18_17 <= 1
 0 <= x_19_17 <= 1
 0 <= x_20_17 <= 1
 0 <= x_21_17 <= 1
 0 <= y_17 <= 1
 0 <= x_1_18 <= 1
 0 <= x_2_18 <= 1
 0 <= x_3_18 <= 1
 0 <= x_4_18 <= 1
 0 <= x_5_18 <= 1
 0 <= x_6_18 <= 1
 0 <= x_7_18 <= 1
 0 <= x_8_18 <= 1
 0 <= x_9_18 <= 1
 0 <= x_10_18 <= 1
 0 <= x_11_18 <= 1
 0 <= x_12_18 <= 1
 0 <= x_13_18 <= 1
 0 <= x_14_18 <= 1
 0 <= x_15_18 <= 1
 0 <= x_16_18 <= 1
 0 <= x_17_18 <= 1
 0 <= x_18_18 <= 1
 0 <= x_19_18 <= 1
 0 <= x_20_18 <= 1
 0 <= x_21_18 <= 1
 0 <= y_18 <= 1
 0 <= x_1_19 <= 1
 0 <= x_2_19 <= 1
 0 <= x_3_19 <= 1
 0 <= x_4_19 <= 1
 0 <= x_5_19 <= 1
 0 <= x_6_19 <= 1
 0 <= x_7_19 <= 1
 0 <= x_8_19 <= 1
 0 <= x_9_19 <= 1
 0 <= x_10_19 <= 1
 0 <= x_11_19 <= 1
 0 <= x_12_19 <= 1
 0 <= x_13_19 <= 1
 0 <= x_14_19 <= 1
 0 <= x_15_19 <= 1
 0 <= x_16_19 <= 1
 0 <= x_17_19 <= 1
 0 <= x_18_19 <= 1
 0 <= x_19_19 <= 1
 0 <= x_20_19 <= 1
 0 <= x_21_19 <= 1
 0 <= y_19 <= 1
 0 <= x_1_20 <= 1
 0 <= x_2_20 <= 1
 0 <= x_3_20 <= 1
 0 <= x_4_20 <= 1
 0 <= x_5_20 <= 1
 0 <= x_6_20 <= 1
 0 <= x_7_20 <= 1
 0 <= x_8_20 <= 1
 0 <= x_9_20 <= 1
 0 <= x_10_20 <= 1
 0 <= x_11_20 <= 1
 0 <= x_12_20 <= 1
 0 <= x_13_20 <= 1
 0 <= x_14_20 <= 1
 0 <= x_15_20 <= 1
 0 <= x_16_20 <= 1
 0 <= x_17_20 <= 1
 0 <= x_18_20 <= 1
 0 <= x_19_20 <= 1
 0 <= x_20_20 <= 1
 0 <= x_21_20 <= 1
 0 <= y_20 <= 1
 0 <= x_1_21 <= 1
 0 <= x_2_21 <= 1
 0 <= x_3_21 <= 1
 0 <= x_4_21 <= 1
 0 <= x_5_21 <= 1
 0 <= x_6_21 <= 1
 0 <= x_7_21 <= 1
 0 <= x_8_21 <= 1
 0 <= x_9_21 <= 1
 0 <= x_10_21 <= 1
 0 <= x_11_21 <= 1
 0 <= x_12_21 <= 1
 0 <= x_13_21 <= 1
 0 <= x_14_21 <= 1
 0 <= x_15_21 <= 1
 0 <= x_16_21 <= 1
 0 <= x_17_21 <= 1
 0 <= x_18_21 <= 1
 0 <= x_19_21 <= 1
 0 <= x_20_21 <= 1
 0 <= x_21_21 <= 1
 0 <= y_21 <= 1
Binaries
 x_1_1  x_2_1  x_3_1  x_4_1  x_5_1  x_6_1  x_7_1  x_8_1  x_9_1  x_10_1  x_11_1 
 x_12_1  x_13_1  x_14_1  x_15_1  x_16_1  x_17_1  x_18_1  x_19_1  x_20_1 
 x_21_1  y_1  x_1_2  x_2_2  x_3_2  x_4_2  x_5_2  x_6_2  x_7_2  x_8_2  x_9_2 
 x_10_2  x_11_2  x_12_2  x_13_2  x_14_2  x_15_2  x_16_2  x_17_2  x_18_2 
 x_19_2  x_20_2  x_21_2  y_2  x_1_3  x_2_3  x_3_3  x_4_3  x_5_3  x_6_3  x_7_3 
 x_8_3  x_9_3  x_10_3  x_11_3  x_12_3  x_13_3  x_14_3  x_15_3  x_16_3  x_17_3 
 x_18_3  x_19_3  x_20_3  x_21_3  y_3  x_1_4  x_2_4  x_3_4  x_4_4  x_5_4  x_6_4 
 x_7_4  x_8_4  x_9_4  x_10_4  x_11_4  x_12_4  x_13_4  x_14_4  x_15_4  x_16_4 
 x_17_4  x_18_4  x_19_4  x_20_4  x_21_4  y_4  x_1_5  x_2_5  x_3_5  x_4_5 
 x_5_5  x_6_5  x_7_5  x_8_5  x_9_5  x_10_5  x_11_5  x_12_5  x_13_5  x_14_5 
 x_15_5  x_16_5  x_17_5  x_18_5  x_19_5  x_20_5  x_21_5  y_5  x_1_6  x_2_6 
 x_3_6  x_4_6  x_5_6  x_6_6  x_7_6  x_8_6  x_9_6  x_10_6  x_11_6  x_12_6 
 x_13_6  x_14_6  x_15_6  x_16_6  x_17_6  x_18_6  x_19_6  x_20_6  x_21_6  y_6 
 x_1_7  x_2_7  x_3_7  x_4_7  x_5_7  x_6_7  x_7_7  x_8_7  x_9_7  x_10_7  x_11_7 
 x_12_7  x_13_7  x_14_7  x_15_7  x_16_7  x_17_7  x_18_7  x_19_7  x_20_7 
 x_21_7  y_7  x_1_8  x_2_8  x_3_8  x_4_8  x_5_8  x_6_8  x_7_8  x_8_8  x_9_8 
 x_10_8  x_11_8  x_12_8  x_13_8  x_14_8  x_15_8  x_16_8  x_17_8  x_18_8 
 x_19_8  x_20_8  x_21_8  y_8  x_1_9  x_2_9  x_3_9  x_4_9  x_5_9  x_6_9  x_7_9 
 x_8_9  x_9_9  x_10_9  x_11_9  x_12_9  x_13_9  x_14_9  x_15_9  x_16_9  x_17_9 
 x_18_9  x_19_9  x_20_9  x_21_9  y_9  x_1_10  x_2_10  x_3_10  x_4_10  x_5_10 
 x_6_10  x_7_10  x_8_10  x_9_10  x_10_10  x_11_10  x_12_10  x_13_10  x_14_10 
 x_15_10  x_16_10  x_17_10  x_18_10  x_19_10  x_20_10  x_21_10  y_10  x_1_11 
 x_2_11  x_3_11  x_4_11  x_5_11  x_6_11  x_7_11  x_8_11  x_9_11  x_10_11 
 x_11_11  x_12_11  x_13_11  x_14_11  x_15_11  x_16_11  x_17_11  x_18_11 
 x_19_11  x_20_11  x_21_11  y_11  x_1_12  x_2_12  x_3_12  x_4_12  x_5_12 
 x_6_12  x_7_12  x_8_12  x_9_12  x_10_12  x_11_12  x_12_12  x_13_12  x_14_12 
 x_15_12  x_16_12  x_17_12  x_18_12  x_19_12  x_20_12  x_21_12  y_12  x_1_13 
 x_2_13  x_3_13  x_4_13  x_5_13  x_6_13  x_7_13  x_8_13  x_9_13  x_10_13 
 x_11_13  x_12_13  x_13_13  x_14_13  x_15_13  x_16_13  x_17_13  x_18_13 
 x_19_13  x_20_13  x_21_13  y_13  x_1_14  x_2_14  x_3_14  x_4_14  x_5_14 
 x_6_14  x_7_14  x_8_14  x_9_14  x_10_14  x_11_14  x_12_14  x_13_14  x_14_14 
 x_15_14  x_16_14  x_17_14  x_18_14  x_19_14  x_20_14  x_21_14  y_14  x_1_15 
 x_2_15  x_3_15  x_4_15  x_5_15  x_6_15  x_7_15  x_8_15  x_9_15  x_10_15 
 x_11_15  x_12_15  x_13_15  x_14_15  x_15_15  x_16_15  x_17_15  x_18_15 
 x_19_15  x_20_15  x_21_15  y_15  x_1_16  x_2_16  x_3_16  x_4_16  x_5_16 
 x_6_16  x_7_16  x_8_16  x_9_16  x_10_16  x_11_16  x_12_16  x_13_16  x_14_16 
 x_15_16  x_16_16  x_17_16  x_18_16  x_19_16  x_20_16  x_21_16  y_16  x_1_17 
 x_2_17  x_3_17  x_4_17  x_5_17  x_6_17  x_7_17  x_8_17  x_9_17  x_10_17 
 x_11_17  x_12_17  x_13_17  x_14_17  x_15_17  x_16_17  x_17_17  x_18_17 
 x_19_17  x_20_17  x_21_17  y_17  x_1_18  x_2_18  x_3_18  x_4_18  x_5_18 
 x_6_18  x_7_18  x_8_18  x_9_18  x_10_18  x_11_18  x_12_18  x_13_18  x_14_18 
 x_15_18  x_16_18  x_17_18  x_18_18  x_19_18  x_20_18  x_21_18  y_18  x_1_19 
 x_2_19  x_3_19  x_4_19  x_5_19  x_6_19  x_7_19  x_8_19  x_9_19  x_10_19 
 x_11_19  x_12_19  x_13_19  x_14_19  x_15_19  x_16_19  x_17_19  x_18_19 
 x_19_19  x_20_19  x_21_19  y_19  x_1_20  x_2_20  x_3_20  x_4_20  x_5_20 
 x_6_20  x_7_20  x_8_20  x_9_20  x_10_20  x_11_20  x_12_20  x_13_20  x_14_20 
 x_15_20  x_16_20  x_17_20  x_18_20  x_19_20  x_20_20  x_21_20  y_20  x_1_21 
 x_2_21  x_3_21  x_4_21  x_5_21  x_6_21  x_7_21  x_8_21  x_9_21  x_10_21 
 x_11_21  x_12_21  x_13_21  x_14_21  x_15_21  x_16_21  x_17_21  x_18_21 
 x_19_21  x_20_21  x_21_21  y_21 
End
